 Surf-mp-48                             
   1.00000000000000     
     1.2344083195740001   -2.1380573715510001    0.0000000000000000
     1.2344083195740001    2.1380573715510001    0.0000000000000000
     0.0000000000000000    0.0000000000000000   12.0000000000000000
   C 
     2
Direct
  0.0000000000000000  0.0000000000000000  0.5000000000000000
  0.3333329999917112  0.6666670000099160  0.5000000000000000
 
  0.00000000E+00  0.00000000E+00  0.00000000E+00
  0.00000000E+00  0.00000000E+00  0.00000000E+00
