K-Path Generated by VASPKIT.
   100
Line-Mode
Reciprocal
   0.0000000000   0.0000000000   0.0000000000     GAMMA          
   0.5000000000   0.0000000000   0.0000000000     M              
 
   0.5000000000   0.0000000000   0.0000000000     M              
   0.3333333333   0.3333333333   0.0000000000     K              
 
   0.3333333333   0.3333333333   0.0000000000     K              
   0.0000000000   0.0000000000   0.0000000000     GAMMA          
 
