Graphene                                
   1.00000000000000     
     1.2321149883939124   -2.1340852085231266   -0.0000000000000000
     1.2321149883939124    2.1340852085231266    0.0000000000000000
    -0.0000000000000000   -0.0000000000000000   11.9989398464036530
   C 
     2
Direct
  0.0000000000000000  0.0000000000000000  0.5000000000000000
  0.3333329999917112  0.6666670000099160  0.5000000000000000
 
  0.00000000E+00  0.00000000E+00  0.00000000E+00
  0.00000000E+00  0.00000000E+00  0.00000000E+00
