K-Path Generated by VASPKIT.
   200
Line-Mode
Reciprocal
   0.0000000000   0.0000000000   0.0000000000     GAMMA          
   0.3333333333   0.3333333333   0.0000000000     K              
 
   0.3333333333   0.3333333333   0.0000000000     K              
   0.5000000000   0.0000000000   0.0000000000     M

   0.5000000000   0.0000000000   0.0000000000     M
   0.6666666666  -0.3333333333   0.0000000000     K'

   0.6666666666  -0.3333333333   0.0000000000     K'
   0.0000000000   0.0000000000   0.0000000000     GAMMA

