H-LaH2                                  
   1.00000000000000     
     3.7503585050982018    0.0000000000000000    0.0000000000000000
    -1.8751597973422121    3.2479169712483071    0.0000000000000000
     0.0000000000000000    0.0000000000000000   22.3281636144102222
   La   H 
     1     2
Direct
  0.6666599138050159  0.3333264797247596  0.4999999994557577
  0.9999952928543016  0.9999971546146863  0.5569450850782138
  0.9999951828816446  0.9999970805424825  0.4430548915358446
 
  0.00000000E+00  0.00000000E+00  0.00000000E+00
  0.00000000E+00  0.00000000E+00  0.00000000E+00
  0.00000000E+00  0.00000000E+00  0.00000000E+00
